(set-info :source |printed by MathSAT|)
(declare-fun A_0 () Int)
(declare-fun .y.15 () Int)
(declare-fun D_0 () Int)
(declare-fun .y.16 () Int)
(declare-fun .y.11 () Int)
(declare-fun .y.17 () Int)
(declare-fun C_0 () (Array Int Int))
(declare-fun .y.18 () (Array Int Int))
(declare-fun B_0 () Int)
(declare-fun .y.19 () Int)
(declare-fun F_0 () Int)
(declare-fun .y.20 () Int)
(declare-fun .y.12 () Int)
(declare-fun .y.21 () Int)
(declare-fun E_0 () (Array Int Int))
(declare-fun .y.22 () (Array Int Int))
(declare-fun .loc.13 () Bool)
(declare-fun .loc.23 () Bool)
(declare-fun .loc.14 () Bool)
(declare-fun .loc.24 () Bool)
(define-fun .def_8 () Int (! A_0 :next |.y.15|))
(define-fun .def_10 () Int (! D_0 :next |.y.16|))
(define-fun .def_12 () Int (! .y.11 :next |.y.17|))
(define-fun .def_14 () (Array Int Int) (! C_0 :next |.y.18|))
(define-fun .def_16 () Int (! B_0 :next |.y.19|))
(define-fun .def_18 () Int (! F_0 :next |.y.20|))
(define-fun .def_20 () Int (! .y.12 :next |.y.21|))
(define-fun .def_22 () (Array Int Int) (! E_0 :next |.y.22|))
(define-fun .def_24 () Bool (! .loc.13 :next |.loc.23|))
(define-fun .def_26 () Bool (! .loc.14 :next |.loc.24|))
(define-fun .def_173 () Bool (not .def_26))
(define-fun .def_179 () Bool (and .def_24 .def_173))
(define-fun .def_176 () Bool (= .def_10 .def_18))
(define-fun .def_148 () Bool (= .def_14 .def_22))
(define-fun .def_177 () Bool (and .def_148 .def_176))
(define-fun .def_175 () Bool (= .def_8 .def_16))
(define-fun .def_178 () Bool (and .def_175 .def_177))
(define-fun .def_180 () Bool (! (and .def_178 .def_179) :init true))
(define-fun .def_37 () Bool (not .loc.23))
(define-fun .def_166 () Bool (and .loc.24 .def_37))
(define-fun .def_32 () Int (select .def_22 .def_18))
(define-fun .def_33 () Bool (= .def_32 0))
(define-fun .def_34 () Bool (not .def_33))
(define-fun .def_29 () Int (select .def_14 .def_10))
(define-fun .def_30 () Bool (= .def_29 0))
(define-fun .def_159 () Bool (and .def_30 .def_34))
(define-fun .def_31 () Bool (not .def_30))
(define-fun .def_158 () Bool (and .def_31 .def_33))
(define-fun .def_160 () Bool (or .def_158 .def_159))
(define-fun .def_156 () Bool (and .def_30 .def_33))
(define-fun .def_149 () Bool (not .def_148))
(define-fun .def_157 () Bool (and .def_149 .def_156))
(define-fun .def_161 () Bool (or .def_157 .def_160))
(define-fun .def_162 () Bool (and .def_24 .def_161))
(define-fun .def_85 () Int (select .def_14 .def_8))
(define-fun .def_87 () Bool (= .def_85 0))
(define-fun .def_90 () Bool (not .def_87))
(define-fun .def_57 () Bool (not .def_24))
(define-fun .def_142 () Bool (and .def_57 .def_90))
(define-fun .def_84 () Int (select .def_14 .def_12))
(define-fun .def_86 () Bool (= .def_84 .def_85))
(define-fun .def_143 () Bool (and .def_86 .def_142))
(define-fun .def_59 () Int (+ .def_16 .def_18))
(define-fun .def_60 () Int (select .def_22 .def_59))
(define-fun .def_61 () Bool (= .def_60 0))
(define-fun .def_155 () Bool (and .def_61 .def_143))
(define-fun .def_163 () Bool (or .def_155 .def_162))
(define-fun .def_152 () Bool (and .def_57 .def_87))
(define-fun .def_62 () Bool (not .def_61))
(define-fun .def_153 () Bool (and .def_62 .def_152))
(define-fun .def_79 () Int (select .def_22 .def_20))
(define-fun .def_80 () Bool (= .def_60 .def_79))
(define-fun .def_154 () Bool (and .def_80 .def_153))
(define-fun .def_164 () Bool (or .def_154 .def_163))
(define-fun .def_146 () Bool (= .def_12 .def_20))
(define-fun .def_147 () Bool (not .def_146))
(define-fun .def_150 () Bool (or .def_147 .def_149))
(define-fun .def_144 () Bool (and .def_62 .def_143))
(define-fun .def_145 () Bool (and .def_80 .def_144))
(define-fun .def_151 () Bool (and .def_145 .def_150))
(define-fun .def_165 () Bool (or .def_151 .def_164))
(define-fun .def_167 () Bool (and .def_165 .def_166))
(define-fun .def_138 () Int (* (- 1) .def_20))
(define-fun .def_139 () Int (+ .y.20 .def_138))
(define-fun .def_140 () Bool (= .def_139 1))
(define-fun .def_133 () Int (* (- 1) .def_12))
(define-fun .def_134 () Int (+ .y.16 .def_133))
(define-fun .def_135 () Bool (= .def_134 1))
(define-fun .def_128 () Bool (= .y.15 .def_10))
(define-fun .def_121 () Bool (and .loc.23 .def_57))
(define-fun .def_122 () Bool (and .def_87 .def_121))
(define-fun .def_123 () Bool (and .def_61 .def_122))
(define-fun .def_39 () Bool (not .loc.24))
(define-fun .def_124 () Bool (and .def_39 .def_123))
(define-fun .def_41 () Bool (= .def_22 .y.22))
(define-fun .def_125 () Bool (and .def_41 .def_124))
(define-fun .def_43 () Bool (= .def_16 .y.19))
(define-fun .def_126 () Bool (and .def_43 .def_125))
(define-fun .def_45 () Bool (= .def_14 .y.18))
(define-fun .def_127 () Bool (and .def_45 .def_126))
(define-fun .def_129 () Bool (and .def_127 .def_128))
(define-fun .def_136 () Bool (and .def_129 .def_135))
(define-fun .def_141 () Bool (and .def_136 .def_140))
(define-fun .def_168 () Bool (or .def_141 .def_167))
(define-fun .def_58 () Bool (and .def_37 .def_57))
(define-fun .def_91 () Bool (and .def_58 .def_90))
(define-fun .def_109 () Bool (and .def_62 .def_91))
(define-fun .def_110 () Bool (and .def_39 .def_109))
(define-fun .def_111 () Bool (and .def_41 .def_110))
(define-fun .def_112 () Bool (and .def_43 .def_111))
(define-fun .def_113 () Bool (and .def_45 .def_112))
(define-fun .def_68 () Bool (= .def_20 .y.21))
(define-fun .def_114 () Bool (and .def_68 .def_113))
(define-fun .def_70 () Bool (= .def_12 .y.17))
(define-fun .def_115 () Bool (and .def_70 .def_114))
(define-fun .def_72 () Bool (= .def_10 .y.16))
(define-fun .def_116 () Bool (and .def_72 .def_115))
(define-fun .def_99 () Int (* (- 1) .y.15))
(define-fun .def_100 () Int (+ .def_8 .def_99))
(define-fun .def_101 () Bool (= .def_100 (- 1)))
(define-fun .def_117 () Bool (and .def_101 .def_116))
(define-fun .def_75 () Int (* (- 1) .y.20))
(define-fun .def_76 () Int (+ .def_18 .def_75))
(define-fun .def_77 () Bool (= .def_76 (- 1)))
(define-fun .def_118 () Bool (and .def_77 .def_117))
(define-fun .def_81 () Bool (not .def_80))
(define-fun .def_119 () Bool (and .def_81 .def_118))
(define-fun .def_103 () Bool (not .def_86))
(define-fun .def_120 () Bool (and .def_103 .def_119))
(define-fun .def_169 () Bool (or .def_120 .def_168))
(define-fun .def_107 () Bool (or .def_61 .def_80))
(define-fun .def_105 () Bool (= .def_18 .y.20))
(define-fun .def_92 () Bool (and .def_39 .def_91))
(define-fun .def_93 () Bool (and .def_41 .def_92))
(define-fun .def_94 () Bool (and .def_43 .def_93))
(define-fun .def_95 () Bool (and .def_45 .def_94))
(define-fun .def_96 () Bool (and .def_68 .def_95))
(define-fun .def_97 () Bool (and .def_70 .def_96))
(define-fun .def_98 () Bool (and .def_72 .def_97))
(define-fun .def_102 () Bool (and .def_98 .def_101))
(define-fun .def_104 () Bool (and .def_102 .def_103))
(define-fun .def_106 () Bool (and .def_104 .def_105))
(define-fun .def_108 () Bool (and .def_106 .def_107))
(define-fun .def_170 () Bool (or .def_108 .def_169))
(define-fun .def_88 () Bool (or .def_86 .def_87))
(define-fun .def_63 () Bool (and .def_58 .def_62))
(define-fun .def_64 () Bool (and .def_39 .def_63))
(define-fun .def_65 () Bool (and .def_41 .def_64))
(define-fun .def_66 () Bool (and .def_43 .def_65))
(define-fun .def_67 () Bool (and .def_45 .def_66))
(define-fun .def_69 () Bool (and .def_67 .def_68))
(define-fun .def_71 () Bool (and .def_69 .def_70))
(define-fun .def_73 () Bool (and .def_71 .def_72))
(define-fun .def_78 () Bool (and .def_73 .def_77))
(define-fun .def_82 () Bool (and .def_78 .def_81))
(define-fun .def_47 () Bool (= .def_8 .y.15))
(define-fun .def_83 () Bool (and .def_47 .def_82))
(define-fun .def_89 () Bool (and .def_83 .def_88))
(define-fun .def_171 () Bool (or .def_89 .def_170))
(define-fun .def_55 () Bool (= .def_8 .y.16))
(define-fun .def_53 () Bool (= .y.20 0))
(define-fun .def_51 () Bool (= .def_10 .y.17))
(define-fun .def_49 () Bool (= .def_18 .y.21))
(define-fun .def_35 () Bool (and .def_31 .def_34))
(define-fun .def_36 () Bool (and .def_24 .def_35))
(define-fun .def_38 () Bool (and .def_36 .def_37))
(define-fun .def_40 () Bool (and .def_38 .def_39))
(define-fun .def_42 () Bool (and .def_40 .def_41))
(define-fun .def_44 () Bool (and .def_42 .def_43))
(define-fun .def_46 () Bool (and .def_44 .def_45))
(define-fun .def_48 () Bool (and .def_46 .def_47))
(define-fun .def_50 () Bool (and .def_48 .def_49))
(define-fun .def_52 () Bool (and .def_50 .def_51))
(define-fun .def_54 () Bool (and .def_52 .def_53))
(define-fun .def_56 () Bool (and .def_54 .def_55))
(define-fun .def_172 () Bool (or .def_56 .def_171))
(define-fun .def_174 () Bool (! (and .def_172 .def_173) :trans true))
(define-fun .def_181 () Bool (and .def_26 .def_57))
(define-fun .def_182 () Bool (! (not .def_181) :invar-property 0))
(assert true)
